c File: flat175_3_0.col
c
c SOURCE: Joseph Culberson (joe@cs.ualberta.ca)
c DESCRIPTION: Quasi-random coloring problem
c              generated with flatness = 0
c                             probability = 0.041
c                             known coloring = 3
c                             random seed = 1024
c              Creation Date:  Wed Feb 24 10:54:57 1999
c Maximum degree = 8 Minimum degree = 1
c COLOR VERIFICATION: Using the permuted order
c under simple greedy yields the specified
c coloring number
c Color = 3 specified partitions = 3
c p edge 175 417
c cnf created by edge2cnf
p cnf 525 1951
-1 -2 0
-1 -3 0
-2 -3 0
1 2 3 0
-4 -5 0
-4 -6 0
-5 -6 0
4 5 6 0
-7 -8 0
-7 -9 0
-8 -9 0
7 8 9 0
-10 -11 0
-10 -12 0
-11 -12 0
10 11 12 0
-13 -14 0
-13 -15 0
-14 -15 0
13 14 15 0
-16 -17 0
-16 -18 0
-17 -18 0
16 17 18 0
-19 -20 0
-19 -21 0
-20 -21 0
19 20 21 0
-22 -23 0
-22 -24 0
-23 -24 0
22 23 24 0
-25 -26 0
-25 -27 0
-26 -27 0
25 26 27 0
-28 -29 0
-28 -30 0
-29 -30 0
28 29 30 0
-31 -32 0
-31 -33 0
-32 -33 0
31 32 33 0
-34 -35 0
-34 -36 0
-35 -36 0
34 35 36 0
-37 -38 0
-37 -39 0
-38 -39 0
37 38 39 0
-40 -41 0
-40 -42 0
-41 -42 0
40 41 42 0
-43 -44 0
-43 -45 0
-44 -45 0
43 44 45 0
-46 -47 0
-46 -48 0
-47 -48 0
46 47 48 0
-49 -50 0
-49 -51 0
-50 -51 0
49 50 51 0
-52 -53 0
-52 -54 0
-53 -54 0
52 53 54 0
-55 -56 0
-55 -57 0
-56 -57 0
55 56 57 0
-58 -59 0
-58 -60 0
-59 -60 0
58 59 60 0
-61 -62 0
-61 -63 0
-62 -63 0
61 62 63 0
-64 -65 0
-64 -66 0
-65 -66 0
64 65 66 0
-67 -68 0
-67 -69 0
-68 -69 0
67 68 69 0
-70 -71 0
-70 -72 0
-71 -72 0
70 71 72 0
-73 -74 0
-73 -75 0
-74 -75 0
73 74 75 0
-76 -77 0
-76 -78 0
-77 -78 0
76 77 78 0
-79 -80 0
-79 -81 0
-80 -81 0
79 80 81 0
-82 -83 0
-82 -84 0
-83 -84 0
82 83 84 0
-85 -86 0
-85 -87 0
-86 -87 0
85 86 87 0
-88 -89 0
-88 -90 0
-89 -90 0
88 89 90 0
-91 -92 0
-91 -93 0
-92 -93 0
91 92 93 0
-94 -95 0
-94 -96 0
-95 -96 0
94 95 96 0
-97 -98 0
-97 -99 0
-98 -99 0
97 98 99 0
-100 -101 0
-100 -102 0
-101 -102 0
100 101 102 0
-103 -104 0
-103 -105 0
-104 -105 0
103 104 105 0
-106 -107 0
-106 -108 0
-107 -108 0
106 107 108 0
-109 -110 0
-109 -111 0
-110 -111 0
109 110 111 0
-112 -113 0
-112 -114 0
-113 -114 0
112 113 114 0
-115 -116 0
-115 -117 0
-116 -117 0
115 116 117 0
-118 -119 0
-118 -120 0
-119 -120 0
118 119 120 0
-121 -122 0
-121 -123 0
-122 -123 0
121 122 123 0
-124 -125 0
-124 -126 0
-125 -126 0
124 125 126 0
-127 -128 0
-127 -129 0
-128 -129 0
127 128 129 0
-130 -131 0
-130 -132 0
-131 -132 0
130 131 132 0
-133 -134 0
-133 -135 0
-134 -135 0
133 134 135 0
-136 -137 0
-136 -138 0
-137 -138 0
136 137 138 0
-139 -140 0
-139 -141 0
-140 -141 0
139 140 141 0
-142 -143 0
-142 -144 0
-143 -144 0
142 143 144 0
-145 -146 0
-145 -147 0
-146 -147 0
145 146 147 0
-148 -149 0
-148 -150 0
-149 -150 0
148 149 150 0
-151 -152 0
-151 -153 0
-152 -153 0
151 152 153 0
-154 -155 0
-154 -156 0
-155 -156 0
154 155 156 0
-157 -158 0
-157 -159 0
-158 -159 0
157 158 159 0
-160 -161 0
-160 -162 0
-161 -162 0
160 161 162 0
-163 -164 0
-163 -165 0
-164 -165 0
163 164 165 0
-166 -167 0
-166 -168 0
-167 -168 0
166 167 168 0
-169 -170 0
-169 -171 0
-170 -171 0
169 170 171 0
-172 -173 0
-172 -174 0
-173 -174 0
172 173 174 0
-175 -176 0
-175 -177 0
-176 -177 0
175 176 177 0
-178 -179 0
-178 -180 0
-179 -180 0
178 179 180 0
-181 -182 0
-181 -183 0
-182 -183 0
181 182 183 0
-184 -185 0
-184 -186 0
-185 -186 0
184 185 186 0
-187 -188 0
-187 -189 0
-188 -189 0
187 188 189 0
-190 -191 0
-190 -192 0
-191 -192 0
190 191 192 0
-193 -194 0
-193 -195 0
-194 -195 0
193 194 195 0
-196 -197 0
-196 -198 0
-197 -198 0
196 197 198 0
-199 -200 0
-199 -201 0
-200 -201 0
199 200 201 0
-202 -203 0
-202 -204 0
-203 -204 0
202 203 204 0
-205 -206 0
-205 -207 0
-206 -207 0
205 206 207 0
-208 -209 0
-208 -210 0
-209 -210 0
208 209 210 0
-211 -212 0
-211 -213 0
-212 -213 0
211 212 213 0
-214 -215 0
-214 -216 0
-215 -216 0
214 215 216 0
-217 -218 0
-217 -219 0
-218 -219 0
217 218 219 0
-220 -221 0
-220 -222 0
-221 -222 0
220 221 222 0
-223 -224 0
-223 -225 0
-224 -225 0
223 224 225 0
-226 -227 0
-226 -228 0
-227 -228 0
226 227 228 0
-229 -230 0
-229 -231 0
-230 -231 0
229 230 231 0
-232 -233 0
-232 -234 0
-233 -234 0
232 233 234 0
-235 -236 0
-235 -237 0
-236 -237 0
235 236 237 0
-238 -239 0
-238 -240 0
-239 -240 0
238 239 240 0
-241 -242 0
-241 -243 0
-242 -243 0
241 242 243 0
-244 -245 0
-244 -246 0
-245 -246 0
244 245 246 0
-247 -248 0
-247 -249 0
-248 -249 0
247 248 249 0
-250 -251 0
-250 -252 0
-251 -252 0
250 251 252 0
-253 -254 0
-253 -255 0
-254 -255 0
253 254 255 0
-256 -257 0
-256 -258 0
-257 -258 0
256 257 258 0
-259 -260 0
-259 -261 0
-260 -261 0
259 260 261 0
-262 -263 0
-262 -264 0
-263 -264 0
262 263 264 0
-265 -266 0
-265 -267 0
-266 -267 0
265 266 267 0
-268 -269 0
-268 -270 0
-269 -270 0
268 269 270 0
-271 -272 0
-271 -273 0
-272 -273 0
271 272 273 0
-274 -275 0
-274 -276 0
-275 -276 0
274 275 276 0
-277 -278 0
-277 -279 0
-278 -279 0
277 278 279 0
-280 -281 0
-280 -282 0
-281 -282 0
280 281 282 0
-283 -284 0
-283 -285 0
-284 -285 0
283 284 285 0
-286 -287 0
-286 -288 0
-287 -288 0
286 287 288 0
-289 -290 0
-289 -291 0
-290 -291 0
289 290 291 0
-292 -293 0
-292 -294 0
-293 -294 0
292 293 294 0
-295 -296 0
-295 -297 0
-296 -297 0
295 296 297 0
-298 -299 0
-298 -300 0
-299 -300 0
298 299 300 0
-301 -302 0
-301 -303 0
-302 -303 0
301 302 303 0
-304 -305 0
-304 -306 0
-305 -306 0
304 305 306 0
-307 -308 0
-307 -309 0
-308 -309 0
307 308 309 0
-310 -311 0
-310 -312 0
-311 -312 0
310 311 312 0
-313 -314 0
-313 -315 0
-314 -315 0
313 314 315 0
-316 -317 0
-316 -318 0
-317 -318 0
316 317 318 0
-319 -320 0
-319 -321 0
-320 -321 0
319 320 321 0
-322 -323 0
-322 -324 0
-323 -324 0
322 323 324 0
-325 -326 0
-325 -327 0
-326 -327 0
325 326 327 0
-328 -329 0
-328 -330 0
-329 -330 0
328 329 330 0
-331 -332 0
-331 -333 0
-332 -333 0
331 332 333 0
-334 -335 0
-334 -336 0
-335 -336 0
334 335 336 0
-337 -338 0
-337 -339 0
-338 -339 0
337 338 339 0
-340 -341 0
-340 -342 0
-341 -342 0
340 341 342 0
-343 -344 0
-343 -345 0
-344 -345 0
343 344 345 0
-346 -347 0
-346 -348 0
-347 -348 0
346 347 348 0
-349 -350 0
-349 -351 0
-350 -351 0
349 350 351 0
-352 -353 0
-352 -354 0
-353 -354 0
352 353 354 0
-355 -356 0
-355 -357 0
-356 -357 0
355 356 357 0
-358 -359 0
-358 -360 0
-359 -360 0
358 359 360 0
-361 -362 0
-361 -363 0
-362 -363 0
361 362 363 0
-364 -365 0
-364 -366 0
-365 -366 0
364 365 366 0
-367 -368 0
-367 -369 0
-368 -369 0
367 368 369 0
-370 -371 0
-370 -372 0
-371 -372 0
370 371 372 0
-373 -374 0
-373 -375 0
-374 -375 0
373 374 375 0
-376 -377 0
-376 -378 0
-377 -378 0
376 377 378 0
-379 -380 0
-379 -381 0
-380 -381 0
379 380 381 0
-382 -383 0
-382 -384 0
-383 -384 0
382 383 384 0
-385 -386 0
-385 -387 0
-386 -387 0
385 386 387 0
-388 -389 0
-388 -390 0
-389 -390 0
388 389 390 0
-391 -392 0
-391 -393 0
-392 -393 0
391 392 393 0
-394 -395 0
-394 -396 0
-395 -396 0
394 395 396 0
-397 -398 0
-397 -399 0
-398 -399 0
397 398 399 0
-400 -401 0
-400 -402 0
-401 -402 0
400 401 402 0
-403 -404 0
-403 -405 0
-404 -405 0
403 404 405 0
-406 -407 0
-406 -408 0
-407 -408 0
406 407 408 0
-409 -410 0
-409 -411 0
-410 -411 0
409 410 411 0
-412 -413 0
-412 -414 0
-413 -414 0
412 413 414 0
-415 -416 0
-415 -417 0
-416 -417 0
415 416 417 0
-418 -419 0
-418 -420 0
-419 -420 0
418 419 420 0
-421 -422 0
-421 -423 0
-422 -423 0
421 422 423 0
-424 -425 0
-424 -426 0
-425 -426 0
424 425 426 0
-427 -428 0
-427 -429 0
-428 -429 0
427 428 429 0
-430 -431 0
-430 -432 0
-431 -432 0
430 431 432 0
-433 -434 0
-433 -435 0
-434 -435 0
433 434 435 0
-436 -437 0
-436 -438 0
-437 -438 0
436 437 438 0
-439 -440 0
-439 -441 0
-440 -441 0
439 440 441 0
-442 -443 0
-442 -444 0
-443 -444 0
442 443 444 0
-445 -446 0
-445 -447 0
-446 -447 0
445 446 447 0
-448 -449 0
-448 -450 0
-449 -450 0
448 449 450 0
-451 -452 0
-451 -453 0
-452 -453 0
451 452 453 0
-454 -455 0
-454 -456 0
-455 -456 0
454 455 456 0
-457 -458 0
-457 -459 0
-458 -459 0
457 458 459 0
-460 -461 0
-460 -462 0
-461 -462 0
460 461 462 0
-463 -464 0
-463 -465 0
-464 -465 0
463 464 465 0
-466 -467 0
-466 -468 0
-467 -468 0
466 467 468 0
-469 -470 0
-469 -471 0
-470 -471 0
469 470 471 0
-472 -473 0
-472 -474 0
-473 -474 0
472 473 474 0
-475 -476 0
-475 -477 0
-476 -477 0
475 476 477 0
-478 -479 0
-478 -480 0
-479 -480 0
478 479 480 0
-481 -482 0
-481 -483 0
-482 -483 0
481 482 483 0
-484 -485 0
-484 -486 0
-485 -486 0
484 485 486 0
-487 -488 0
-487 -489 0
-488 -489 0
487 488 489 0
-490 -491 0
-490 -492 0
-491 -492 0
490 491 492 0
-493 -494 0
-493 -495 0
-494 -495 0
493 494 495 0
-496 -497 0
-496 -498 0
-497 -498 0
496 497 498 0
-499 -500 0
-499 -501 0
-500 -501 0
499 500 501 0
-502 -503 0
-502 -504 0
-503 -504 0
502 503 504 0
-505 -506 0
-505 -507 0
-506 -507 0
505 506 507 0
-508 -509 0
-508 -510 0
-509 -510 0
508 509 510 0
-511 -512 0
-511 -513 0
-512 -513 0
511 512 513 0
-514 -515 0
-514 -516 0
-515 -516 0
514 515 516 0
-517 -518 0
-517 -519 0
-518 -519 0
517 518 519 0
-520 -521 0
-520 -522 0
-521 -522 0
520 521 522 0
-523 -524 0
-523 -525 0
-524 -525 0
523 524 525 0
-94 -1 0
-95 -2 0
-96 -3 0
-178 -1 0
-179 -2 0
-180 -3 0
-229 -1 0
-230 -2 0
-231 -3 0
-283 -1 0
-284 -2 0
-285 -3 0
-502 -1 0
-503 -2 0
-504 -3 0
-22 -4 0
-23 -5 0
-24 -6 0
-88 -4 0
-89 -5 0
-90 -6 0
-178 -4 0
-179 -5 0
-180 -6 0
-379 -4 0
-380 -5 0
-381 -6 0
-394 -4 0
-395 -5 0
-396 -6 0
-28 -7 0
-29 -8 0
-30 -9 0
-187 -7 0
-188 -8 0
-189 -9 0
-415 -7 0
-416 -8 0
-417 -9 0
-442 -7 0
-443 -8 0
-444 -9 0
-193 -10 0
-194 -11 0
-195 -12 0
-247 -10 0
-248 -11 0
-249 -12 0
-358 -10 0
-359 -11 0
-360 -12 0
-487 -13 0
-488 -14 0
-489 -15 0
-319 -16 0
-320 -17 0
-321 -18 0
-250 -19 0
-251 -20 0
-252 -21 0
-364 -19 0
-365 -20 0
-366 -21 0
-400 -19 0
-401 -20 0
-402 -21 0
-442 -19 0
-443 -20 0
-444 -21 0
-148 -22 0
-149 -23 0
-150 -24 0
-190 -22 0
-191 -23 0
-192 -24 0
-262 -22 0
-263 -23 0
-264 -24 0
-340 -22 0
-341 -23 0
-342 -24 0
-103 -25 0
-104 -26 0
-105 -27 0
-196 -25 0
-197 -26 0
-198 -27 0
-280 -25 0
-281 -26 0
-282 -27 0
-304 -25 0
-305 -26 0
-306 -27 0
-310 -25 0
-311 -26 0
-312 -27 0
-373 -25 0
-374 -26 0
-375 -27 0
-505 -25 0
-506 -26 0
-507 -27 0
-214 -28 0
-215 -29 0
-216 -30 0
-226 -28 0
-227 -29 0
-228 -30 0
-448 -28 0
-449 -29 0
-450 -30 0
-127 -31 0
-128 -32 0
-129 -33 0
-163 -31 0
-164 -32 0
-165 -33 0
-118 -34 0
-119 -35 0
-120 -36 0
-181 -34 0
-182 -35 0
-183 -36 0
-199 -34 0
-200 -35 0
-201 -36 0
-202 -34 0
-203 -35 0
-204 -36 0
-223 -34 0
-224 -35 0
-225 -36 0
-289 -37 0
-290 -38 0
-291 -39 0
-172 -40 0
-173 -41 0
-174 -42 0
-184 -40 0
-185 -41 0
-186 -42 0
-229 -40 0
-230 -41 0
-231 -42 0
-274 -40 0
-275 -41 0
-276 -42 0
-322 -40 0
-323 -41 0
-324 -42 0
-349 -40 0
-350 -41 0
-351 -42 0
-145 -43 0
-146 -44 0
-147 -45 0
-403 -43 0
-404 -44 0
-405 -45 0
-115 -46 0
-116 -47 0
-117 -48 0
-352 -46 0
-353 -47 0
-354 -48 0
-412 -46 0
-413 -47 0
-414 -48 0
-481 -46 0
-482 -47 0
-483 -48 0
-490 -46 0
-491 -47 0
-492 -48 0
-70 -49 0
-71 -50 0
-72 -51 0
-103 -49 0
-104 -50 0
-105 -51 0
-133 -49 0
-134 -50 0
-135 -51 0
-166 -49 0
-167 -50 0
-168 -51 0
-379 -49 0
-380 -50 0
-381 -51 0
-430 -49 0
-431 -50 0
-432 -51 0
-280 -52 0
-281 -53 0
-282 -54 0
-478 -52 0
-479 -53 0
-480 -54 0
-511 -52 0
-512 -53 0
-513 -54 0
-58 -55 0
-59 -56 0
-60 -57 0
-106 -55 0
-107 -56 0
-108 -57 0
-232 -55 0
-233 -56 0
-234 -57 0
-250 -55 0
-251 -56 0
-252 -57 0
-463 -55 0
-464 -56 0
-465 -57 0
-109 -58 0
-110 -59 0
-111 -60 0
-220 -58 0
-221 -59 0
-222 -60 0
-490 -58 0
-491 -59 0
-492 -60 0
-226 -61 0
-227 -62 0
-228 -63 0
-301 -61 0
-302 -62 0
-303 -63 0
-340 -61 0
-341 -62 0
-342 -63 0
-460 -61 0
-461 -62 0
-462 -63 0
-520 -61 0
-521 -62 0
-522 -63 0
-253 -64 0
-254 -65 0
-255 -66 0
-304 -64 0
-305 -65 0
-306 -66 0
-367 -64 0
-368 -65 0
-369 -66 0
-412 -64 0
-413 -65 0
-414 -66 0
-178 -67 0
-179 -68 0
-180 -69 0
-271 -67 0
-272 -68 0
-273 -69 0
-307 -67 0
-308 -68 0
-309 -69 0
-313 -67 0
-314 -68 0
-315 -69 0
-427 -67 0
-428 -68 0
-429 -69 0
-481 -67 0
-482 -68 0
-483 -69 0
-82 -70 0
-83 -71 0
-84 -72 0
-169 -70 0
-170 -71 0
-171 -72 0
-226 -70 0
-227 -71 0
-228 -72 0
-436 -70 0
-437 -71 0
-438 -72 0
-133 -73 0
-134 -74 0
-135 -75 0
-265 -73 0
-266 -74 0
-267 -75 0
-367 -73 0
-368 -74 0
-369 -75 0
-403 -73 0
-404 -74 0
-405 -75 0
-418 -73 0
-419 -74 0
-420 -75 0
-427 -73 0
-428 -74 0
-429 -75 0
-178 -76 0
-179 -77 0
-180 -78 0
-211 -76 0
-212 -77 0
-213 -78 0
-262 -76 0
-263 -77 0
-264 -78 0
-358 -76 0
-359 -77 0
-360 -78 0
-391 -76 0
-392 -77 0
-393 -78 0
-442 -76 0
-443 -77 0
-444 -78 0
-520 -76 0
-521 -77 0
-522 -78 0
-181 -79 0
-182 -80 0
-183 -81 0
-325 -79 0
-326 -80 0
-327 -81 0
-373 -79 0
-374 -80 0
-375 -81 0
-376 -79 0
-377 -80 0
-378 -81 0
-430 -79 0
-431 -80 0
-432 -81 0
-433 -79 0
-434 -80 0
-435 -81 0
-106 -82 0
-107 -83 0
-108 -84 0
-238 -82 0
-239 -83 0
-240 -84 0
-280 -82 0
-281 -83 0
-282 -84 0
-451 -82 0
-452 -83 0
-453 -84 0
-169 -85 0
-170 -86 0
-171 -87 0
-382 -85 0
-383 -86 0
-384 -87 0
-403 -85 0
-404 -86 0
-405 -87 0
-118 -88 0
-119 -89 0
-120 -90 0
-151 -88 0
-152 -89 0
-153 -90 0
-331 -88 0
-332 -89 0
-333 -90 0
-418 -88 0
-419 -89 0
-420 -90 0
-205 -91 0
-206 -92 0
-207 -93 0
-244 -91 0
-245 -92 0
-246 -93 0
-469 -91 0
-470 -92 0
-471 -93 0
-472 -91 0
-473 -92 0
-474 -93 0
-139 -94 0
-140 -95 0
-141 -96 0
-142 -94 0
-143 -95 0
-144 -96 0
-361 -94 0
-362 -95 0
-363 -96 0
-391 -94 0
-392 -95 0
-393 -96 0
-472 -94 0
-473 -95 0
-474 -96 0
-475 -94 0
-476 -95 0
-477 -96 0
-517 -94 0
-518 -95 0
-519 -96 0
-121 -97 0
-122 -98 0
-123 -99 0
-262 -97 0
-263 -98 0
-264 -99 0
-172 -100 0
-173 -101 0
-174 -102 0
-184 -100 0
-185 -101 0
-186 -102 0
-256 -100 0
-257 -101 0
-258 -102 0
-337 -100 0
-338 -101 0
-339 -102 0
-355 -100 0
-356 -101 0
-357 -102 0
-250 -103 0
-251 -104 0
-252 -105 0
-304 -103 0
-305 -104 0
-306 -105 0
-322 -103 0
-323 -104 0
-324 -105 0
-211 -106 0
-212 -107 0
-213 -108 0
-478 -106 0
-479 -107 0
-480 -108 0
-142 -109 0
-143 -110 0
-144 -111 0
-277 -109 0
-278 -110 0
-279 -111 0
-331 -109 0
-332 -110 0
-333 -111 0
-430 -109 0
-431 -110 0
-432 -111 0
-295 -112 0
-296 -113 0
-297 -114 0
-310 -112 0
-311 -113 0
-312 -114 0
-409 -112 0
-410 -113 0
-411 -114 0
-457 -112 0
-458 -113 0
-459 -114 0
-199 -115 0
-200 -116 0
-201 -117 0
-334 -115 0
-335 -116 0
-336 -117 0
-121 -118 0
-122 -119 0
-123 -120 0
-139 -118 0
-140 -119 0
-141 -120 0
-277 -118 0
-278 -119 0
-279 -120 0
-349 -118 0
-350 -119 0
-351 -120 0
-364 -118 0
-365 -119 0
-366 -120 0
-202 -121 0
-203 -122 0
-204 -123 0
-268 -121 0
-269 -122 0
-270 -123 0
-361 -121 0
-362 -122 0
-363 -123 0
-385 -121 0
-386 -122 0
-387 -123 0
-424 -121 0
-425 -122 0
-426 -123 0
-511 -121 0
-512 -122 0
-513 -123 0
-199 -124 0
-200 -125 0
-201 -126 0
-217 -124 0
-218 -125 0
-219 -126 0
-346 -124 0
-347 -125 0
-348 -126 0
-352 -124 0
-353 -125 0
-354 -126 0
-427 -124 0
-428 -125 0
-429 -126 0
-133 -127 0
-134 -128 0
-135 -129 0
-304 -127 0
-305 -128 0
-306 -129 0
-403 -127 0
-404 -128 0
-405 -129 0
-307 -130 0
-308 -131 0
-309 -132 0
-403 -130 0
-404 -131 0
-405 -132 0
-433 -130 0
-434 -131 0
-435 -132 0
-211 -133 0
-212 -134 0
-213 -135 0
-313 -133 0
-314 -134 0
-315 -135 0
-367 -133 0
-368 -134 0
-369 -135 0
-487 -133 0
-488 -134 0
-489 -135 0
-325 -136 0
-326 -137 0
-327 -138 0
-355 -136 0
-356 -137 0
-357 -138 0
-454 -136 0
-455 -137 0
-456 -138 0
-478 -136 0
-479 -137 0
-480 -138 0
-148 -139 0
-149 -140 0
-150 -141 0
-181 -139 0
-182 -140 0
-183 -141 0
-295 -139 0
-296 -140 0
-297 -141 0
-358 -139 0
-359 -140 0
-360 -141 0
-373 -142 0
-374 -143 0
-375 -144 0
-376 -142 0
-377 -143 0
-378 -144 0
-481 -142 0
-482 -143 0
-483 -144 0
-175 -145 0
-176 -146 0
-177 -147 0
-217 -145 0
-218 -146 0
-219 -147 0
-241 -145 0
-242 -146 0
-243 -147 0
-379 -145 0
-380 -146 0
-381 -147 0
-397 -145 0
-398 -146 0
-399 -147 0
-406 -145 0
-407 -146 0
-408 -147 0
-160 -148 0
-161 -149 0
-162 -150 0
-178 -148 0
-179 -149 0
-180 -150 0
-229 -148 0
-230 -149 0
-231 -150 0
-301 -148 0
-302 -149 0
-303 -150 0
-385 -148 0
-386 -149 0
-387 -150 0
-445 -148 0
-446 -149 0
-447 -150 0
-163 -151 0
-164 -152 0
-165 -153 0
-172 -154 0
-173 -155 0
-174 -156 0
-223 -154 0
-224 -155 0
-225 -156 0
-286 -154 0
-287 -155 0
-288 -156 0
-292 -154 0
-293 -155 0
-294 -156 0
-310 -154 0
-311 -155 0
-312 -156 0
-484 -154 0
-485 -155 0
-486 -156 0
-517 -154 0
-518 -155 0
-519 -156 0
-280 -157 0
-281 -158 0
-282 -159 0
-304 -157 0
-305 -158 0
-306 -159 0
-364 -157 0
-365 -158 0
-366 -159 0
-478 -157 0
-479 -158 0
-480 -159 0
-274 -160 0
-275 -161 0
-276 -162 0
-307 -160 0
-308 -161 0
-309 -162 0
-499 -160 0
-500 -161 0
-501 -162 0
-190 -163 0
-191 -164 0
-192 -165 0
-349 -163 0
-350 -164 0
-351 -165 0
-400 -163 0
-401 -164 0
-402 -165 0
-265 -166 0
-266 -167 0
-267 -168 0
-277 -166 0
-278 -167 0
-279 -168 0
-400 -166 0
-401 -167 0
-402 -168 0
-457 -166 0
-458 -167 0
-459 -168 0
-403 -169 0
-404 -170 0
-405 -171 0
-520 -169 0
-521 -170 0
-522 -171 0
-208 -172 0
-209 -173 0
-210 -174 0
-271 -172 0
-272 -173 0
-273 -174 0
-322 -172 0
-323 -173 0
-324 -174 0
-475 -172 0
-476 -173 0
-477 -174 0
-256 -178 0
-257 -179 0
-258 -180 0
-256 -181 0
-257 -182 0
-258 -183 0
-385 -181 0
-386 -182 0
-387 -183 0
-205 -184 0
-206 -185 0
-207 -186 0
-244 -184 0
-245 -185 0
-246 -186 0
-400 -184 0
-401 -185 0
-402 -186 0
-229 -187 0
-230 -188 0
-231 -189 0
-238 -187 0
-239 -188 0
-240 -189 0
-340 -187 0
-341 -188 0
-342 -189 0
-370 -187 0
-371 -188 0
-372 -189 0
-436 -187 0
-437 -188 0
-438 -189 0
-451 -187 0
-452 -188 0
-453 -189 0
-310 -190 0
-311 -191 0
-312 -192 0
-421 -190 0
-422 -191 0
-423 -192 0
-247 -193 0
-248 -194 0
-249 -195 0
-430 -193 0
-431 -194 0
-432 -195 0
-292 -196 0
-293 -197 0
-294 -198 0
-490 -196 0
-491 -197 0
-492 -198 0
-439 -199 0
-440 -200 0
-441 -201 0
-205 -202 0
-206 -203 0
-207 -204 0
-241 -202 0
-242 -203 0
-243 -204 0
-337 -202 0
-338 -203 0
-339 -204 0
-355 -202 0
-356 -203 0
-357 -204 0
-358 -205 0
-359 -206 0
-360 -207 0
-406 -205 0
-407 -206 0
-408 -207 0
-445 -205 0
-446 -206 0
-447 -207 0
-478 -205 0
-479 -206 0
-480 -207 0
-484 -205 0
-485 -206 0
-486 -207 0
-319 -208 0
-320 -209 0
-321 -210 0
-337 -208 0
-338 -209 0
-339 -210 0
-475 -211 0
-476 -212 0
-477 -213 0
-229 -214 0
-230 -215 0
-231 -216 0
-331 -214 0
-332 -215 0
-333 -216 0
-373 -214 0
-374 -215 0
-375 -216 0
-445 -214 0
-446 -215 0
-447 -216 0
-283 -217 0
-284 -218 0
-285 -219 0
-352 -217 0
-353 -218 0
-354 -219 0
-406 -217 0
-407 -218 0
-408 -219 0
-490 -217 0
-491 -218 0
-492 -219 0
-280 -220 0
-281 -221 0
-282 -222 0
-484 -220 0
-485 -221 0
-486 -222 0
-520 -220 0
-521 -221 0
-522 -222 0
-343 -223 0
-344 -224 0
-345 -225 0
-409 -223 0
-410 -224 0
-411 -225 0
-472 -223 0
-473 -224 0
-474 -225 0
-325 -226 0
-326 -227 0
-327 -228 0
-433 -226 0
-434 -227 0
-435 -228 0
-490 -226 0
-491 -227 0
-492 -228 0
-367 -229 0
-368 -230 0
-369 -231 0
-298 -232 0
-299 -233 0
-300 -234 0
-319 -232 0
-320 -233 0
-321 -234 0
-388 -232 0
-389 -233 0
-390 -234 0
-253 -235 0
-254 -236 0
-255 -237 0
-505 -235 0
-506 -236 0
-507 -237 0
-328 -238 0
-329 -239 0
-330 -240 0
-454 -238 0
-455 -239 0
-456 -240 0
-286 -241 0
-287 -242 0
-288 -243 0
-460 -241 0
-461 -242 0
-462 -243 0
-247 -244 0
-248 -245 0
-249 -246 0
-295 -244 0
-296 -245 0
-297 -246 0
-373 -244 0
-374 -245 0
-375 -246 0
-505 -244 0
-506 -245 0
-507 -246 0
-421 -247 0
-422 -248 0
-423 -249 0
-472 -247 0
-473 -248 0
-474 -249 0
-412 -250 0
-413 -251 0
-414 -252 0
-439 -250 0
-440 -251 0
-441 -252 0
-445 -250 0
-446 -251 0
-447 -252 0
-421 -253 0
-422 -254 0
-423 -255 0
-460 -253 0
-461 -254 0
-462 -255 0
-478 -253 0
-479 -254 0
-480 -255 0
-511 -253 0
-512 -254 0
-513 -255 0
-280 -256 0
-281 -257 0
-282 -258 0
-442 -256 0
-443 -257 0
-444 -258 0
-511 -256 0
-512 -257 0
-513 -258 0
-298 -259 0
-299 -260 0
-300 -261 0
-412 -259 0
-413 -260 0
-414 -261 0
-274 -262 0
-275 -263 0
-276 -264 0
-520 -262 0
-521 -263 0
-522 -264 0
-373 -265 0
-374 -266 0
-375 -267 0
-460 -265 0
-461 -266 0
-462 -267 0
-364 -268 0
-365 -269 0
-366 -270 0
-289 -271 0
-290 -272 0
-291 -273 0
-364 -271 0
-365 -272 0
-366 -273 0
-484 -271 0
-485 -272 0
-486 -273 0
-475 -274 0
-476 -275 0
-477 -276 0
-505 -274 0
-506 -275 0
-507 -276 0
-424 -277 0
-425 -278 0
-426 -279 0
-319 -280 0
-320 -281 0
-321 -282 0
-409 -280 0
-410 -281 0
-411 -282 0
-325 -283 0
-326 -284 0
-327 -285 0
-451 -283 0
-452 -284 0
-453 -285 0
-292 -286 0
-293 -287 0
-294 -288 0
-424 -286 0
-425 -287 0
-426 -288 0
-508 -292 0
-509 -293 0
-510 -294 0
-352 -295 0
-353 -296 0
-354 -297 0
-358 -295 0
-359 -296 0
-360 -297 0
-418 -295 0
-419 -296 0
-420 -297 0
-430 -295 0
-431 -296 0
-432 -297 0
-433 -295 0
-434 -296 0
-435 -297 0
-301 -298 0
-302 -299 0
-303 -300 0
-520 -298 0
-521 -299 0
-522 -300 0
-319 -301 0
-320 -302 0
-321 -303 0
-451 -307 0
-452 -308 0
-453 -309 0
-499 -310 0
-500 -311 0
-501 -312 0
-316 -313 0
-317 -314 0
-318 -315 0
-352 -313 0
-353 -314 0
-354 -315 0
-502 -313 0
-503 -314 0
-504 -315 0
-415 -316 0
-416 -317 0
-417 -318 0
-325 -319 0
-326 -320 0
-327 -321 0
-382 -325 0
-383 -326 0
-384 -327 0
-415 -325 0
-416 -326 0
-417 -327 0
-496 -325 0
-497 -326 0
-498 -327 0
-412 -328 0
-413 -329 0
-414 -330 0
-514 -328 0
-515 -329 0
-516 -330 0
-346 -331 0
-347 -332 0
-348 -333 0
-484 -331 0
-485 -332 0
-486 -333 0
-346 -334 0
-347 -335 0
-348 -336 0
-370 -334 0
-371 -335 0
-372 -336 0
-382 -337 0
-383 -338 0
-384 -339 0
-388 -337 0
-389 -338 0
-390 -339 0
-346 -343 0
-347 -344 0
-348 -345 0
-403 -343 0
-404 -344 0
-405 -345 0
-382 -346 0
-383 -347 0
-384 -348 0
-424 -346 0
-425 -347 0
-426 -348 0
-436 -346 0
-437 -347 0
-438 -348 0
-484 -346 0
-485 -347 0
-486 -348 0
-430 -349 0
-431 -350 0
-432 -351 0
-409 -352 0
-410 -353 0
-411 -354 0
-421 -355 0
-422 -356 0
-423 -357 0
-430 -355 0
-431 -356 0
-432 -357 0
-445 -355 0
-446 -356 0
-447 -357 0
-514 -355 0
-515 -356 0
-516 -357 0
-373 -358 0
-374 -359 0
-375 -360 0
-418 -361 0
-419 -362 0
-420 -363 0
-511 -361 0
-512 -362 0
-513 -363 0
-388 -364 0
-389 -365 0
-390 -366 0
-439 -364 0
-440 -365 0
-441 -366 0
-442 -367 0
-443 -368 0
-444 -369 0
-493 -367 0
-494 -368 0
-495 -369 0
-397 -370 0
-398 -371 0
-399 -372 0
-427 -370 0
-428 -371 0
-429 -372 0
-439 -370 0
-440 -371 0
-441 -372 0
-496 -370 0
-497 -371 0
-498 -372 0
-403 -373 0
-404 -374 0
-405 -375 0
-412 -379 0
-413 -380 0
-414 -381 0
-391 -382 0
-392 -383 0
-393 -384 0
-502 -382 0
-503 -383 0
-504 -384 0
-520 -382 0
-521 -383 0
-522 -384 0
-391 -385 0
-392 -386 0
-393 -387 0
-397 -385 0
-398 -386 0
-399 -387 0
-394 -388 0
-395 -389 0
-396 -390 0
-475 -394 0
-476 -395 0
-477 -396 0
-421 -400 0
-422 -401 0
-423 -402 0
-502 -400 0
-503 -401 0
-504 -402 0
-460 -409 0
-461 -410 0
-462 -411 0
-445 -415 0
-446 -416 0
-447 -417 0
-496 -415 0
-497 -416 0
-498 -417 0
-490 -418 0
-491 -419 0
-492 -420 0
-451 -421 0
-452 -422 0
-453 -423 0
-463 -421 0
-464 -422 0
-465 -423 0
-460 -424 0
-461 -425 0
-462 -426 0
-466 -424 0
-467 -425 0
-468 -426 0
-472 -424 0
-473 -425 0
-474 -426 0
-481 -424 0
-482 -425 0
-483 -426 0
-475 -427 0
-476 -428 0
-477 -429 0
-496 -427 0
-497 -428 0
-498 -429 0
-511 -430 0
-512 -431 0
-513 -432 0
-436 -433 0
-437 -434 0
-438 -435 0
-478 -433 0
-479 -434 0
-480 -435 0
-463 -436 0
-464 -437 0
-465 -438 0
-517 -436 0
-518 -437 0
-519 -438 0
-523 -439 0
-524 -440 0
-525 -441 0
-454 -448 0
-455 -449 0
-456 -450 0
-466 -448 0
-467 -449 0
-468 -450 0
-493 -448 0
-494 -449 0
-495 -450 0
-502 -448 0
-503 -449 0
-504 -450 0
-469 -451 0
-470 -452 0
-471 -453 0
-460 -457 0
-461 -458 0
-462 -459 0
-505 -463 0
-506 -464 0
-507 -465 0
-511 -466 0
-512 -467 0
-513 -468 0
-499 -472 0
-500 -473 0
-501 -474 0
-505 -481 0
-506 -482 0
-507 -483 0
-520 -493 0
-521 -494 0
-522 -495 0
